\* Min Cost Flow *\
Minimize
Total_cost_of_flow: 34 flow_1011 + 31 flow_1012 + 2 flow_1013
 + 98132 flow_1015 + 156278 flow_1018 + 238194 flow_1036 + 17 flow_109
 + 34 flow_1110 + 15 flow_1112 + 2 flow_1113 + 351810 flow_1129
 + 366207 flow_116 + 33 flow_119 + 15 flow_12 + 31 flow_1210 + 15 flow_1211
 + 3 flow_1213 + 370109 flow_1222 + 346952 flow_1232 + 341390 flow_1239
 + 31 flow_129 + 15 flow_13 + 2 flow_1310 + 2 flow_1311 + 3 flow_1312
 + 2 flow_139 + 14 flow_14 + 25 flow_1415 + flow_1416 + 71328 flow_143
 + 424512 flow_1432 + 141666 flow_1436 + 443283 flow_1439 + flow_15
 + 98132 flow_1510 + 25 flow_1514 + flow_1516 + 72397 flow_154
 + 11014 flow_1543 + 321204 flow_1548 + flow_1614 + flow_1615 + 25 flow_1718
 + 2 flow_1719 + 126810 flow_173 + 486672 flow_1740 + 156278 flow_1810
 + 25 flow_1817 + flow_1819 + 84536 flow_1835 + 84290 flow_1846
 + 49391 flow_19 + 2 flow_1917 + flow_1918 + 18 flow_2021 + 14 flow_2022
 + 7 flow_2023 + flow_2024 + 40495 flow_2041 + 15 flow_21 + 393817 flow_212
 + 18 flow_2120 + 23 flow_2122 + 19 flow_2123 + flow_2124 + 8016 flow_216
 + 393817 flow_221 + 370109 flow_2212 + 14 flow_2220 + 23 flow_2221
 + 19 flow_2223 + flow_2224 + 17 flow_23 + 7 flow_2320 + 19 flow_2321
 + 19 flow_2322 + flow_2324 + 40793 flow_2328 + 17 flow_24 + 367472 flow_240
 + flow_2420 + flow_2421 + flow_2422 + flow_2423 + 2 flow_25 + 10 flow_2526
 + flow_2527 + 758666 flow_2531 + 4 flow_2548 + 4 flow_2549 + 10 flow_2625
 + flow_2627 + 6 flow_2648 + 7 flow_2649 + 417838 flow_269 + flow_2725
 + flow_2726 + flow_2748 + flow_2749 + 40793 flow_2823 + 20 flow_2829
 + 23 flow_2830 + 20 flow_2831 + 21 flow_2832 + 14 flow_2833 + flow_2834
 + 361464 flow_284 + 16420 flow_2844 + 351810 flow_2911 + 20 flow_2928
 + 17 flow_2930 + 47 flow_2931 + 6 flow_2932 + 18 flow_2933 + flow_2934
 + 1662 flow_2938 + 1603 flow_2947 + 23 flow_3028 + 17 flow_3029
 + 31 flow_3031 + 18 flow_3032 + 18 flow_3033 + flow_3034 + 1483 flow_3041
 + 16924 flow_3044 + 37473 flow_307 + 15 flow_31 + 758666 flow_3125
 + 20 flow_3128 + 47 flow_3129 + 31 flow_3130 + 25 flow_3132 + 20 flow_3133
 + flow_3134 + 12838 flow_3145 + 126810 flow_317 + 17 flow_32
 + 346952 flow_3212 + 424512 flow_3214 + 21 flow_3228 + 6 flow_3229
 + 18 flow_3230 + 25 flow_3231 + 26 flow_3233 + flow_3234 + 1293 flow_3247
 + 14 flow_3328 + 18 flow_3329 + 732896 flow_333 + 18 flow_3330 + 20 flow_3331
 + 26 flow_3332 + flow_3334 + 12700 flow_3345 + 11 flow_34 + flow_3428
 + flow_3429 + flow_3430 + flow_3431 + flow_3432 + flow_3433 + flow_35
 + 84536 flow_3518 + 24 flow_3536 + flow_3537 + 574570 flow_3538
 + 1896 flow_3546 + 238194 flow_3610 + 141666 flow_3614 + 24 flow_3635
 + 2 flow_3637 + 181343 flow_3649 + flow_3735 + 2 flow_3736 + 1662 flow_3829
 + 574570 flow_3835 + 56 flow_3839 + 38 flow_3840 + 21 flow_3841 + flow_3842
 + 198 flow_3847 + 36947 flow_387 + 341390 flow_3912 + 443283 flow_3914
 + 56 flow_3938 + 33 flow_3940 + 22 flow_3941 + flow_3942 + 17266 flow_3944
 + 198 flow_3947 + 486672 flow_4017 + 367472 flow_402 + 38 flow_4038
 + 33 flow_4039 + 40 flow_4041 + 2 flow_4042 + 14008 flow_4045 + 14 flow_41
 + 40495 flow_4120 + 1483 flow_4130 + 21 flow_4138 + 22 flow_4139
 + 40 flow_4140 + flow_4142 + 196 flow_4147 + 72397 flow_415 + 17 flow_42
 + flow_4238 + flow_4239 + 2 flow_4240 + flow_4241 + 361464 flow_428
 + 11 flow_43 + 71328 flow_431 + 11014 flow_4315 + 16420 flow_4428
 + 16924 flow_4430 + 17266 flow_4439 + flow_45 + 12838 flow_4531
 + 12700 flow_4533 + 14008 flow_4540 + 84290 flow_4618 + 1896 flow_4635
 + 1603 flow_4729 + 1293 flow_4732 + 198 flow_4738 + 198 flow_4739
 + 196 flow_4741 + 321204 flow_4815 + 4 flow_4825 + 6 flow_4826 + flow_4827
 + 4 flow_4849 + 4 flow_4925 + 7 flow_4926 + flow_4927 + 181343 flow_4936
 + 4 flow_4948 + flow_51 + 2 flow_52 + flow_53 + flow_54 + 366207 flow_611
 + 8016 flow_621 + 17 flow_67 + flow_68 + 37473 flow_730 + 36947 flow_738
 + 17 flow_76 + flow_78 + flow_86 + flow_87 + 49391 flow_91 + 17 flow_910
 + 33 flow_911 + 31 flow_912 + 2 flow_913 + 417838 flow_926 + 20 flow_temp_02
 + 1579 flow_temp_10041 + 40280 flow_temp_10141 + flow_temp_10242
 + 2 flow_temp_10342 + flow_temp_10442 + flow_temp_10542
 + 10987 flow_temp_10643 + 16 flow_temp_107 + 71899 flow_temp_10743
 + 17215 flow_temp_10844 + 16458 flow_temp_10944 + 16399 flow_temp_11044
 + 13988 flow_temp_11145 + 12705 flow_temp_11245 + 12701 flow_temp_11345
 + 1893 flow_temp_11446 + 82541 flow_temp_11546 + 200 flow_temp_11647
 + 197 flow_temp_11747 + flow_temp_118 + 213 flow_temp_11847
 + 1453 flow_temp_11947 + 1385 flow_temp_12047 + 5 flow_temp_12148
 + 4 flow_temp_12248 + flow_temp_12348 + 320017 flow_temp_12448
 + 4 flow_temp_12549 + 5 flow_temp_12649 + 4 flow_temp_12749 + flow_temp_128
 + flow_temp_12849 + 181143 flow_temp_12949 + 17 flow_temp_13
 + 20 flow_temp_1301 + 17 flow_temp_1312 + 15 flow_temp_1321
 + 11 flow_temp_1333 + 18 flow_temp_1342 + 17 flow_temp_1351 + flow_temp_1364
 + flow_temp_1373 + 2 flow_temp_1382 + 51824 flow_temp_139 + flow_temp_1391
 + 16 flow_temp_1406 + 18 flow_temp_1410 + flow_temp_1417 + flow_temp_1426
 + 51824 flow_temp_1431 + 18 flow_temp_1449 + 25 flow_temp_14510
 + 21 flow_temp_1469 + 364875 flow_temp_1476 + 14 flow_temp_14811
 + 24 flow_temp_14910 + 23 flow_temp_1509 + 25 flow_temp_1511
 + 3 flow_temp_15112 + 2 flow_temp_15211 + 2 flow_temp_15310
 + 2 flow_temp_1549 + 72603 flow_temp_1554 + 19 flow_temp_15614
 + 99434 flow_temp_15710 + flow_temp_15815 + flow_temp_15914
 + 126271 flow_temp_1603 + 21 flow_temp_1611 + 13 flow_temp_16117
 + 154630 flow_temp_16210 + flow_temp_16318 + 2 flow_temp_16417
 + 9 flow_temp_16520 + 8113 flow_temp_1666 + 394703 flow_temp_1672
 + 15 flow_temp_16821 + 14 flow_temp_16920 + 366125 flow_temp_17012
 + 364875 flow_temp_1711 + 20 flow_temp_17122 + 12 flow_temp_17221
 + 7 flow_temp_17320 + flow_temp_17423 + flow_temp_17522 + flow_temp_17621
 + flow_temp_17720 + 7 flow_temp_17825 + 414538 flow_temp_1799
 + flow_temp_18026 + 14 flow_temp_1812 + flow_temp_18125
 + 40989 flow_temp_18223 + 366119 flow_temp_1834 + 12 flow_temp_18428
 + 338780 flow_temp_18511 + 12 flow_temp_18629 + 13 flow_temp_18728
 + 37111 flow_temp_1887 + 19 flow_temp_18930 + 17 flow_temp_19029
 + 24 flow_temp_1912 + 13 flow_temp_19128 + 751232 flow_temp_19225
 + 20 flow_temp_19331 + 17 flow_temp_19430 + 7 flow_temp_19529
 + 14 flow_temp_19628 + 428976 flow_temp_19714 + 343268 flow_temp_19812
 + 19 flow_temp_19932 + 19 flow_temp_20031 + 23 flow_temp_2012
 + 16 flow_temp_20130 + 16 flow_temp_20229 + 13 flow_temp_20328
 + 361982 flow_temp_2043 + flow_temp_20533 + flow_temp_20632 + flow_temp_20731
 + flow_temp_20830 + flow_temp_20929 + flow_temp_21028 + 83698 flow_temp_21118
 + 3 flow_temp_2113 + 143644 flow_temp_21214 + 15 flow_temp_21335
 + 240941 flow_temp_21410 + 2 flow_temp_21536 + flow_temp_21635
 + 567476 flow_temp_21735 + 1488 flow_temp_21829 + 36925 flow_temp_2197
 + 343855 flow_temp_22012 + 2 flow_temp_2213 + 16 flow_temp_22138
 + 427438 flow_temp_22214 + 22 flow_temp_22339 + 18 flow_temp_22438
 + 492842 flow_temp_22517 + 373979 flow_temp_2262 + 23 flow_temp_22740
 + 19 flow_temp_22839 + 16 flow_temp_22938 + 15 flow_temp_23
 + 1579 flow_temp_23030 + 40280 flow_temp_23120 + 2 flow_temp_2313
 + flow_temp_23241 + 2 flow_temp_23340 + flow_temp_23439 + flow_temp_23538
 + 10987 flow_temp_23615 + 71899 flow_temp_2371 + 17215 flow_temp_23839
 + 16458 flow_temp_23930 + 16399 flow_temp_24028 + 2 flow_temp_2413
 + 13988 flow_temp_24140 + 12705 flow_temp_24233 + 12701 flow_temp_24331
 + 1893 flow_temp_24435 + 82541 flow_temp_24518 + 200 flow_temp_24641
 + 197 flow_temp_24739 + 213 flow_temp_24838 + 1453 flow_temp_24932
 + 1385 flow_temp_25029 + 5 flow_temp_25126 + 72603 flow_temp_2515
 + 4 flow_temp_25225 + flow_temp_25327 + 320017 flow_temp_25415
 + 4 flow_temp_25548 + 5 flow_temp_25626 + 4 flow_temp_25725 + flow_temp_25827
 + 181143 flow_temp_25936 + 19 flow_temp_2615 + 99434 flow_temp_2715
 + flow_temp_2816 + flow_temp_2916 + 126271 flow_temp_3017 + 13 flow_temp_3118
 + 154630 flow_temp_3218 + flow_temp_3319 + 11 flow_temp_34 + 2 flow_temp_3419
 + 9 flow_temp_3521 + 8113 flow_temp_3621 + 394703 flow_temp_3721
 + 15 flow_temp_3822 + 14 flow_temp_3922 + 366125 flow_temp_4022
 + 20 flow_temp_4123 + 12 flow_temp_4223 + 7 flow_temp_4323 + 18 flow_temp_44
 + flow_temp_4424 + flow_temp_4524 + flow_temp_4624 + flow_temp_4724
 + 7 flow_temp_4826 + 414538 flow_temp_4926 + flow_temp_5027 + flow_temp_5127
 + 40989 flow_temp_5228 + 366119 flow_temp_5328 + 17 flow_temp_54
 + 12 flow_temp_5429 + 338780 flow_temp_5529 + 12 flow_temp_5630
 + 13 flow_temp_5730 + 37111 flow_temp_5830 + 19 flow_temp_5931
 + 17 flow_temp_6031 + 13 flow_temp_6131 + 751232 flow_temp_6231
 + 20 flow_temp_6332 + 17 flow_temp_6432 + flow_temp_65 + 7 flow_temp_6532
 + 14 flow_temp_6632 + 428976 flow_temp_6732 + 343268 flow_temp_6832
 + 19 flow_temp_6933 + 19 flow_temp_7033 + 16 flow_temp_7133
 + 16 flow_temp_7233 + 13 flow_temp_7333 + 361982 flow_temp_7433
 + flow_temp_75 + flow_temp_7534 + flow_temp_7634 + flow_temp_7734
 + flow_temp_7834 + flow_temp_7934 + flow_temp_8034 + 83698 flow_temp_8135
 + 143644 flow_temp_8236 + 15 flow_temp_8336 + 240941 flow_temp_8436
 + 2 flow_temp_85 + 2 flow_temp_8537 + flow_temp_8637 + 567476 flow_temp_8738
 + 1488 flow_temp_8838 + 36925 flow_temp_8938 + 343855 flow_temp_9039
 + 16 flow_temp_9139 + 427438 flow_temp_9239 + 22 flow_temp_9340
 + 18 flow_temp_9440 + flow_temp_95 + 492842 flow_temp_9540
 + 373979 flow_temp_9640 + 23 flow_temp_9741 + 19 flow_temp_9841
 + 16 flow_temp_9941
Subject To
_C1: - flow_36temp_212 + flow_temp_21214 = 0
_C10: - flow_24temp_174 + flow_temp_17423 = 0
_C100: - flow_27temp_128 + flow_temp_12849 = 0
_C101: - flow_36temp_129 + flow_temp_12949 = 0
_C102: - flow_45temp_243 + flow_temp_24331 = 0
_C103: - flow_45temp_242 + flow_temp_24233 = 0
_C104: - flow_15temp_124 + flow_temp_12448 = 0
_C105: - flow_48temp_125 + flow_temp_12549 = 0
_C106: - flow_26temp_126 + flow_temp_12649 = 0
_C107: - flow_25temp_127 + flow_temp_12749 = 0
_C108: - flow_29temp_120 + flow_temp_12047 = 0
_C109: - flow_26temp_121 + flow_temp_12148 = 0
_C11: - flow_48temp_253 + flow_temp_25327 = 0
_C110: - flow_25temp_122 + flow_temp_12248 = 0
_C111: - flow_27temp_123 + flow_temp_12348 = 0
_C112: - flow_34temp_207 + flow_temp_20731 = 0
_C113: - flow_48temp_252 + flow_temp_25225 = 0
_C114: - flow_34temp_206 + flow_temp_20632 = 0
_C115: - flow_1239 - flow_1439 - flow_3839 + flow_3912 + flow_3914 + flow_3938
 + flow_3940 + flow_3941 + flow_3942 + flow_3944 + flow_3947 + flow_39temp_104
 + flow_39temp_108 + flow_39temp_117 + flow_39temp_220 + flow_39temp_221
 + flow_39temp_222 + flow_39temp_93 + flow_39temp_98 - flow_4039 - flow_4139
 - flow_4239 - flow_4439 - flow_4739 - flow_temp_22339 - flow_temp_22839
 - flow_temp_23439 - flow_temp_23839 - flow_temp_24739 - flow_temp_9039
 - flow_temp_9139 - flow_temp_9239 = 0
_C116: - flow_2938 - flow_3538 + flow_3829 + flow_3835 + flow_3839 + flow_3840
 + flow_3841 + flow_3842 + flow_3847 + flow_387 + flow_38temp_105
 + flow_38temp_118 + flow_38temp_217 + flow_38temp_218 + flow_38temp_219
 + flow_38temp_91 + flow_38temp_94 + flow_38temp_99 - flow_3938 - flow_4038
 - flow_4138 - flow_4238 - flow_4738 - flow_738 - flow_temp_22138
 - flow_temp_22438 - flow_temp_22938 - flow_temp_23538 - flow_temp_24838
 - flow_temp_8738 - flow_temp_8838 - flow_temp_8938 = 0
_C117: - flow_30temp_59 + flow_temp_5931 = 0
_C118: - flow_7temp_58 + flow_temp_5830 = 0
_C119: - flow_33temp_204 + flow_temp_2043 = 0
_C12: - flow_26temp_179 + flow_temp_1799 = 0
_C120: - flow_2833 - flow_2933 - flow_3033 - flow_3133 - flow_3233 + flow_3328
 + flow_3329 + 0 flow_333 + flow_3330 + flow_3331 + flow_3332 + flow_3334
 + flow_3345 + flow_33temp_112 + flow_33temp_199 + flow_33temp_200
 + flow_33temp_201 + flow_33temp_202 + flow_33temp_203 + flow_33temp_204
 + flow_33temp_75 - flow_3433 - flow_4533 - flow_temp_20533 - flow_temp_24233
 - flow_temp_6933 - flow_temp_7033 - flow_temp_7133 - flow_temp_7233
 - flow_temp_7333 - flow_temp_7433 = 0
_C121: - flow_1232 - flow_1432 - flow_2832 - flow_2932 - flow_3032 - flow_3132
 + flow_3212 + flow_3214 + flow_3228 + flow_3229 + flow_3230 + flow_3231
 + flow_3233 + flow_3234 + flow_3247 + flow_32temp_119 + flow_32temp_193
 + flow_32temp_194 + flow_32temp_195 + flow_32temp_196 + flow_32temp_197
 + flow_32temp_198 + flow_32temp_69 + flow_32temp_76 - flow_3332 - flow_3432
 - flow_4732 - flow_temp_19932 - flow_temp_20632 - flow_temp_24932
 - flow_temp_6332 - flow_temp_6432 - flow_temp_6532 - flow_temp_6632
 - flow_temp_6732 - flow_temp_6832 = 98901
_C122: - flow_2531 - flow_2831 - flow_2931 - flow_3031 + flow_3125 + flow_3128
 + flow_3129 + flow_3130 + flow_3132 + flow_3133 + flow_3134 + flow_3145
 + flow_31temp_113 + flow_31temp_189 + flow_31temp_190 + flow_31temp_191
 + flow_31temp_192 + flow_31temp_63 + flow_31temp_70 + flow_31temp_77
 - flow_3231 - flow_3331 - flow_3431 - flow_4531 - flow_temp_19331
 - flow_temp_20031 - flow_temp_20731 - flow_temp_24331 - flow_temp_5931
 - flow_temp_6031 - flow_temp_6131 - flow_temp_6231 = 98901
_C123: - flow_2830 - flow_2930 + flow_3028 + flow_3029 + flow_3031 + flow_3032
 + flow_3033 + flow_3034 + flow_3041 + flow_3044 + flow_307 + flow_30temp_100
 + flow_30temp_109 + flow_30temp_186 + flow_30temp_187 + flow_30temp_188
 + flow_30temp_59 + flow_30temp_64 + flow_30temp_71 + flow_30temp_78
 - flow_3130 - flow_3230 - flow_3330 - flow_3430 - flow_4130 - flow_4430
 - flow_730 - flow_temp_18930 - flow_temp_19430 - flow_temp_20130
 - flow_temp_20830 - flow_temp_23030 - flow_temp_23930 - flow_temp_5630
 - flow_temp_5730 - flow_temp_5830 = 98901
_C124: - flow_25temp_51 + flow_temp_5127 = 0
_C125: - flow_1036 - flow_1436 - flow_3536 + flow_3610 + flow_3614 + flow_3635
 + flow_3637 + flow_3649 + flow_36temp_129 + flow_36temp_212 + flow_36temp_213
 + flow_36temp_214 + flow_36temp_85 - flow_3736 - flow_4936 - flow_temp_21536
 - flow_temp_25936 - flow_temp_8236 - flow_temp_8336 - flow_temp_8436 = 54945
_C126: - flow_1835 + flow_3518 + flow_3536 + flow_3537 + flow_3538 + flow_3546
 + flow_35temp_114 + flow_35temp_211 + flow_35temp_83 + flow_35temp_86
 + flow_35temp_87 - flow_3635 - flow_3735 - flow_3835 - flow_4635
 - flow_temp_21335 - flow_temp_21635 - flow_temp_21735 - flow_temp_24435
 - flow_temp_8135 = 0
_C127: - flow_2834 - flow_2934 - flow_3034 - flow_3134 - flow_3234 - flow_3334
 + flow_3428 + flow_3429 + flow_3430 + flow_3431 + flow_3432 + flow_3433
 + flow_34temp_205 + flow_34temp_206 + flow_34temp_207 + flow_34temp_208
 + flow_34temp_209 + flow_34temp_210 - flow_temp_7534 - flow_temp_7634
 - flow_temp_7734 - flow_temp_7834 - flow_temp_7934 - flow_temp_8034 = 0
_C128: - flow_47temp_249 + flow_temp_24932 = 0
_C129: - flow_47temp_248 + flow_temp_24838 = 0
_C13: - flow_26temp_178 + flow_temp_17825 = 0
_C130: - flow_18temp_115 + flow_temp_11546 = 0
_C131: - flow_5temp_139 + flow_temp_1391 = 0
_C132: - flow_35temp_114 + flow_temp_11446 = 0
_C133: - flow_5temp_137 + flow_temp_1373 = 0
_C134: - flow_5temp_136 + flow_temp_1364 = 0
_C135: - flow_41temp_116 + flow_temp_11647 = 0
_C136: - flow_4temp_134 + flow_temp_1342 = 0
_C137: - flow_4temp_133 + flow_temp_1333 = 0
_C138: - flow_39temp_117 + flow_temp_11747 = 0
_C139: - flow_3temp_131 + flow_temp_1312 = 0
_C14: - flow_41temp_229 + flow_temp_22938 = 0
_C140: - flow_2temp_130 + flow_temp_1301 = 0
_C141: - flow_41temp_230 + flow_temp_23030 = 0
_C142: - flow_41temp_231 + flow_temp_23120 = 0
_C143: - flow_42temp_232 + flow_temp_23241 = 0
_C144: - flow_14temp_92 + flow_temp_9239 = 0
_C145: - flow_1temp_9 + flow_temp_95 = 0
_C146: - flow_2temp_8 + flow_temp_85 = 0
_C147: - flow_43temp_236 + flow_temp_23615 = 0
_C148: - flow_43temp_237 + flow_temp_2371 = 0
_C149: - flow_1temp_5 + flow_temp_54 = 0
_C15: - flow_2024 - flow_2124 - flow_2224 - flow_2324 + flow_2420 + flow_2421
 + flow_2422 + flow_2423 + flow_24temp_174 + flow_24temp_175 + flow_24temp_176
 + flow_24temp_177 - flow_temp_4424 - flow_temp_4524 - flow_temp_4624
 - flow_temp_4724 = 0
_C150: - flow_2temp_4 + flow_temp_44 = 0
_C151: - flow_3temp_7 + flow_temp_75 = 0
_C152: - flow_4temp_6 + flow_temp_65 = 0
_C153: - flow_2temp_1 + flow_temp_13 = 0
_C154: - flow_1temp_0 + flow_temp_02 = 0
_C155: - flow_3temp_3 + flow_temp_34 = 0
_C156: - flow_1temp_2 + flow_temp_23 = 0
_C157: - flow_25temp_48 + flow_temp_4826 = 0
_C158: - flow_9temp_49 + flow_temp_4926 = 0
_C159: - flow_31temp_113 + flow_temp_11345 = 0
_C16: flow_2526 + flow_2527 + flow_2531 + flow_2548 + flow_2549
 + flow_25temp_122 + flow_25temp_127 + flow_25temp_48 + flow_25temp_51
 + flow_25temp_62 - flow_2625 - flow_2725 - flow_3125 - flow_4825 - flow_4925
 - flow_temp_17825 - flow_temp_18125 - flow_temp_19225 - flow_temp_25225
 - flow_temp_25725 = 0
_C160: - flow_21temp_42 + flow_temp_4223 = 0
_C161: - flow_20temp_43 + flow_temp_4323 = 0
_C162: - flow_12temp_40 + flow_temp_4022 = 0
_C163: - flow_22temp_41 + flow_temp_4123 = 0
_C164: - flow_21temp_46 + flow_temp_4624 = 0
_C165: - flow_20temp_47 + flow_temp_4724 = 0
_C166: - flow_23temp_44 + flow_temp_4424 = 0
_C167: - flow_22temp_45 + flow_temp_4524 = 0
_C168: - flow_12 + flow_21 - flow_212 + flow_221 + flow_23 + flow_24
 + flow_240 + flow_25 + flow_2temp_1 + flow_2temp_130 + flow_2temp_37
 + flow_2temp_4 + flow_2temp_8 + flow_2temp_96 - flow_32 - flow_402 - flow_42
 - flow_52 - flow_temp_02 - flow_temp_1312 - flow_temp_1342 - flow_temp_1382
 - flow_temp_1672 - flow_temp_2262 = 0
_C169: - flow_38temp_218 + flow_temp_21829 = 0
_C17: - flow_2526 + flow_2625 + flow_2627 + flow_2648 + flow_2649 + flow_269
 + flow_26temp_121 + flow_26temp_126 + flow_26temp_178 + flow_26temp_179
 + flow_26temp_50 - flow_2726 - flow_4826 - flow_4926 - flow_926
 - flow_temp_18026 - flow_temp_25126 - flow_temp_25626 - flow_temp_4826
 - flow_temp_4926 = 0
_C170: - flow_116 - flow_216 + flow_611 + flow_621 + flow_67 + flow_68
 + flow_6temp_10 + flow_6temp_12 + flow_6temp_17 + flow_6temp_36 - flow_76
 - flow_86 - flow_temp_1406 - flow_temp_1426 - flow_temp_1476 - flow_temp_1666
 = 0
_C171: - flow_40temp_111 + flow_temp_11145 = 0
_C172: - flow_49temp_258 + flow_temp_25827 = 0
_C173: - flow_41temp_102 + flow_temp_10242 = 0
_C174: - flow_40temp_103 + flow_temp_10342 = 0
_C175: - flow_30temp_100 + flow_temp_10041 = 0
_C176: - flow_20temp_101 + flow_temp_10141 = 0
_C177: - flow_15temp_106 + flow_temp_10643 = 0
_C178: - flow_1temp_107 + flow_temp_10743 = 0
_C179: - flow_39temp_104 + flow_temp_10442 = 0
_C18: - flow_2527 - flow_2627 + flow_2725 + flow_2726 + flow_2748 + flow_2749
 + flow_27temp_123 + flow_27temp_128 + flow_27temp_180 + flow_27temp_181
 - flow_4827 - flow_4927 - flow_temp_25327 - flow_temp_25827 - flow_temp_5027
 - flow_temp_5127 = -769230
_C180: - flow_38temp_105 + flow_temp_10542 = 0
_C181: - flow_41temp_228 + flow_temp_22839 = 0
_C182: - flow_39temp_108 + flow_temp_10844 = 0
_C183: - flow_30temp_109 + flow_temp_10944 = 0
_C184: - flow_49temp_259 + flow_temp_25936 = 0
_C185: - flow_40temp_223 + flow_temp_22339 = 0
_C186: - flow_39temp_222 + flow_temp_22214 = 0
_C187: - flow_30temp_188 + flow_temp_1887 = 0
_C188: - flow_31temp_189 + flow_temp_18930 = 0
_C189: - flow_33temp_199 + flow_temp_19932 = 0
_C19: flow_2021 + flow_2022 + flow_2023 + flow_2024 + flow_2041
 + flow_20temp_101 + flow_20temp_35 + flow_20temp_39 + flow_20temp_43
 + flow_20temp_47 - flow_2120 - flow_2220 - flow_2320 - flow_2420 - flow_4120
 - flow_temp_16520 - flow_temp_16920 - flow_temp_17320 - flow_temp_17720
 - flow_temp_23120 = 0
_C190: - flow_40temp_226 + flow_temp_2262 = 0
_C191: - flow_40temp_225 + flow_temp_22517 = 0
_C192: - flow_68 - flow_78 + flow_86 + flow_87 + flow_8temp_141
 + flow_8temp_142 - flow_temp_118 - flow_temp_128 = 0
_C193: - flow_28temp_110 + flow_temp_11044 = 0
_C194: - flow_28temp_183 + flow_temp_1834 = 0
_C195: - flow_27temp_180 + flow_temp_18026 = 0
_C196: - flow_27temp_181 + flow_temp_18125 = 0
_C197: - flow_30temp_186 + flow_temp_18629 = 0
_C198: - flow_30temp_187 + flow_temp_18728 = 0
_C199: - flow_29temp_184 + flow_temp_18428 = 0
_C2: - flow_40temp_224 + flow_temp_22438 = 0
_C20: - flow_2021 + flow_212 + flow_2120 + flow_2122 + flow_2123 + flow_2124
 + flow_216 + flow_21temp_165 + flow_21temp_166 + flow_21temp_167
 + flow_21temp_38 + flow_21temp_42 + flow_21temp_46 - flow_221 - flow_2221
 - flow_2321 - flow_2421 - flow_621 - flow_temp_16821 - flow_temp_17221
 - flow_temp_17621 - flow_temp_3521 - flow_temp_3621 - flow_temp_3721 = 0
_C200: - flow_29temp_185 + flow_temp_18511 = 0
_C201: - flow_1011 + flow_1110 + flow_1112 + flow_1113 + flow_1129 + flow_116
 + flow_119 + flow_11temp_145 + flow_11temp_146 + flow_11temp_147
 + flow_11temp_18 + flow_11temp_22 + flow_11temp_55 - flow_1211 - flow_1311
 - flow_2911 - flow_611 - flow_911 - flow_temp_14811 - flow_temp_1511
 - flow_temp_15211 - flow_temp_1611 - flow_temp_1711 - flow_temp_18511 = 0
_C202: flow_1011 + flow_1012 + flow_1013 + flow_1015 + flow_1018 + flow_1036
 + flow_109 + flow_10temp_144 + flow_10temp_15 + flow_10temp_19
 + flow_10temp_23 + flow_10temp_27 + flow_10temp_32 + flow_10temp_84
 - flow_1110 - flow_1210 - flow_1310 - flow_1510 - flow_1810 - flow_3610
 - flow_910 - flow_temp_1410 - flow_temp_14510 - flow_temp_14910
 - flow_temp_15310 - flow_temp_15710 - flow_temp_16210 - flow_temp_21410 = 0
_C203: - flow_1013 - flow_1113 - flow_1213 + flow_1310 + flow_1311 + flow_1312
 + flow_139 + flow_13temp_151 + flow_13temp_152 + flow_13temp_153
 + flow_13temp_154 - flow_913 - flow_temp_2113 - flow_temp_2213
 - flow_temp_2313 - flow_temp_2413 = 0
_C204: - flow_1012 - flow_1112 + flow_1210 + flow_1211 + flow_1213 + flow_1222
 + flow_1232 + flow_1239 + flow_129 + flow_12temp_148 + flow_12temp_149
 + flow_12temp_150 + flow_12temp_21 + flow_12temp_40 + flow_12temp_68
 + flow_12temp_90 - flow_1312 - flow_2212 - flow_3212 - flow_3912 - flow_912
 - flow_temp_15112 - flow_temp_17012 - flow_temp_1812 - flow_temp_1912
 - flow_temp_19812 - flow_temp_2012 - flow_temp_22012 = 0
_C205: - flow_1015 - flow_1415 + flow_1510 + flow_1514 + flow_1516 + flow_154
 + flow_1543 + flow_1548 + flow_15temp_106 + flow_15temp_124 + flow_15temp_155
 + flow_15temp_156 + flow_15temp_157 + flow_15temp_28 - flow_1615 - flow_415
 - flow_4315 - flow_4815 - flow_temp_15815 - flow_temp_23615 - flow_temp_2515
 - flow_temp_25415 - flow_temp_2615 - flow_temp_2715 = 0
_C206: flow_1415 + flow_1416 + flow_1432 + flow_1436 + flow_1439
 + flow_14temp_26 + flow_14temp_29 + flow_14temp_67 + flow_14temp_82
 + flow_14temp_92 - flow_1514 - flow_1614 - flow_3214 - flow_3614 - flow_3914
 - flow_temp_15614 - flow_temp_15914 - flow_temp_19714 - flow_temp_21214
 - flow_temp_22214 = 0
_C207: flow_1718 + flow_1719 + flow_173 + flow_1740 + flow_17temp_160
 + flow_17temp_31 + flow_17temp_34 + flow_17temp_95 - flow_1817 - flow_1917
 - flow_317 - flow_4017 - flow_temp_16117 - flow_temp_16417 - flow_temp_22517
 - flow_temp_3017 = 0
_C208: - flow_1416 - flow_1516 + flow_1614 + flow_1615 + flow_16temp_158
 + flow_16temp_159 - flow_temp_2816 - flow_temp_2916 = 0
_C209: - flow_1719 - flow_1819 + flow_1917 + flow_1918 + flow_19temp_163
 + flow_19temp_164 - flow_temp_3319 - flow_temp_3419 = 0
_C21: - flow_1222 - flow_2022 - flow_2122 + flow_2212 + flow_2220 + flow_2221
 + flow_2223 + flow_2224 + flow_22temp_168 + flow_22temp_169 + flow_22temp_170
 + flow_22temp_41 + flow_22temp_45 - flow_2322 - flow_2422 - flow_temp_17122
 - flow_temp_17522 - flow_temp_3822 - flow_temp_3922 - flow_temp_4022 = 0
_C210: - flow_1018 - flow_1718 + flow_1810 + flow_1817 + flow_1819 + flow_1835
 + flow_1846 + flow_18temp_115 + flow_18temp_161 + flow_18temp_162
 + flow_18temp_33 + flow_18temp_81 - flow_1918 - flow_3518 - flow_4618
 - flow_temp_16318 - flow_temp_21118 - flow_temp_24518 - flow_temp_3118
 - flow_temp_3218 = 0
_C211: - flow_39temp_98 + flow_temp_9841 = 0
_C212: - flow_11temp_55 + flow_temp_5529 = 0
_C213: - flow_20temp_39 + flow_temp_3922 = 0
_C214: - flow_21temp_38 + flow_temp_3822 = 0
_C215: - flow_2temp_37 + flow_temp_3721 = 0
_C216: - flow_6temp_36 + flow_temp_3621 = 0
_C217: - flow_20temp_35 + flow_temp_3521 = 0
_C218: - flow_17temp_34 + flow_temp_3419 = 0
_C219: - flow_18temp_33 + flow_temp_3319 = 0
_C22: - flow_2023 - flow_2123 - flow_2223 + flow_2320 + flow_2321 + flow_2322
 + flow_2324 + flow_2328 + flow_23temp_171 + flow_23temp_172 + flow_23temp_173
 + flow_23temp_44 + flow_23temp_52 - flow_2423 - flow_2823 - flow_temp_17423
 - flow_temp_18223 - flow_temp_4123 - flow_temp_4223 - flow_temp_4323 = 0
_C220: - flow_10temp_32 + flow_temp_3218 = 0
_C221: - flow_17temp_31 + flow_temp_3118 = 0
_C222: - flow_3temp_30 + flow_temp_3017 = 0
_C223: - flow_38temp_91 + flow_temp_9139 = 0
_C224: - flow_12temp_90 + flow_temp_9039 = 0
_C225: - flow_39temp_93 + flow_temp_9340 = 0
_C226: - flow_29temp_56 + flow_temp_5630 = 0
_C227: - flow_17temp_95 + flow_temp_9540 = 0
_C228: - flow_38temp_94 + flow_temp_9440 = 0
_C229: - flow_40temp_97 + flow_temp_9741 = 0
_C23: - flow_36temp_213 + flow_temp_21335 = 0
_C230: - flow_2temp_96 + flow_temp_9640 = 0
_C231: - flow_38temp_99 + flow_temp_9941 = 0
_C232: - flow_3537 - flow_3637 + flow_3735 + flow_3736 + flow_37temp_215
 + flow_37temp_216 - flow_temp_8537 - flow_temp_8637 = 0
_C233: - flow_28temp_54 + flow_temp_5429 = 0
_C234: - flow_32temp_119 + flow_temp_11947 = 0
_C235: - flow_38temp_118 + flow_temp_11847 = 0
_C236: - flow_26temp_50 + flow_temp_5027 = 0
_C237: - flow_37temp_216 + flow_temp_21635 = 0
_C238: - flow_38temp_217 + flow_temp_21735 = 0
_C239: - flow_36temp_214 + flow_temp_21410 = 0
_C24: - flow_5temp_138 + flow_temp_1382 = 0
_C240: - flow_37temp_215 + flow_temp_21536 = 0
_C241: - flow_33temp_112 + flow_temp_11245 = 0
_C242: - flow_4temp_53 + flow_temp_5328 = 0
_C243: - flow_34temp_210 + flow_temp_21028 = 0
_C244: - flow_35temp_211 + flow_temp_21118 = 0
_C245: - flow_32temp_195 + flow_temp_19529 = 0
_C246: - flow_32temp_194 + flow_temp_19430 = 0
_C247: - flow_32temp_197 + flow_temp_19714 = 0
_C248: - flow_23temp_52 + flow_temp_5228 = 0
_C249: - flow_31temp_191 + flow_temp_19128 = 0
_C25: - flow_2328 + flow_2823 + flow_2829 + flow_2830 + flow_2831 + flow_2832
 + flow_2833 + flow_2834 + flow_284 + flow_2844 + flow_28temp_110
 + flow_28temp_182 + flow_28temp_183 + flow_28temp_54 + flow_28temp_57
 + flow_28temp_61 + flow_28temp_66 + flow_28temp_73 + flow_28temp_80
 - flow_2928 - flow_3028 - flow_3128 - flow_3228 - flow_3328 - flow_3428
 - flow_428 - flow_4428 - flow_temp_18428 - flow_temp_18728 - flow_temp_19128
 - flow_temp_19628 - flow_temp_20328 - flow_temp_21028 - flow_temp_24028
 - flow_temp_5228 - flow_temp_5328 = 98901
_C250: - flow_31temp_190 + flow_temp_19029 = 0
_C251: - flow_32temp_193 + flow_temp_19331 = 0
_C252: - flow_31temp_192 + flow_temp_19225 = 0
_C253: - flow_32temp_196 + flow_temp_19628 = 0
_C254: - flow_1548 - flow_2548 - flow_2648 - flow_2748 + flow_4815 + flow_4825
 + flow_4826 + flow_4827 + flow_4849 + flow_48temp_125 + flow_48temp_251
 + flow_48temp_252 + flow_48temp_253 + flow_48temp_254 - flow_4948
 - flow_temp_12148 - flow_temp_12248 - flow_temp_12348 - flow_temp_12448
 - flow_temp_25548 = 0
_C255: - flow_2549 - flow_2649 - flow_2749 - flow_3649 - flow_4849 + flow_4925
 + flow_4926 + flow_4927 + flow_4936 + flow_4948 + flow_49temp_255
 + flow_49temp_256 + flow_49temp_257 + flow_49temp_258 + flow_49temp_259
 - flow_temp_12549 - flow_temp_12649 - flow_temp_12749 - flow_temp_12849
 - flow_temp_12949 = 0
_C256: - flow_1846 - flow_3546 + flow_4618 + flow_4635 + flow_46temp_244
 + flow_46temp_245 - flow_temp_11446 - flow_temp_11546 = 32967
_C257: - flow_2947 - flow_3247 - flow_3847 - flow_3947 - flow_4147 + flow_4729
 + flow_4732 + flow_4738 + flow_4739 + flow_4741 + flow_47temp_246
 + flow_47temp_247 + flow_47temp_248 + flow_47temp_249 + flow_47temp_250
 - flow_temp_11647 - flow_temp_11747 - flow_temp_11847 - flow_temp_11947
 - flow_temp_12047 = 0
_C258: - flow_2844 - flow_3044 - flow_3944 + flow_4428 + flow_4430 + flow_4439
 + flow_44temp_238 + flow_44temp_239 + flow_44temp_240 - flow_temp_10844
 - flow_temp_10944 - flow_temp_11044 = 32967
_C259: - flow_3145 - flow_3345 - flow_4045 + flow_4531 + flow_4533 + flow_4540
 + flow_45temp_241 + flow_45temp_242 + flow_45temp_243 - flow_temp_11145
 - flow_temp_11245 - flow_temp_11345 = 21978
_C26: - flow_1129 - flow_2829 + flow_2911 + flow_2928 + flow_2930 + flow_2931
 + flow_2932 + flow_2933 + flow_2934 + flow_2938 + flow_2947 + flow_29temp_120
 + flow_29temp_184 + flow_29temp_185 + flow_29temp_56 + flow_29temp_60
 + flow_29temp_65 + flow_29temp_72 + flow_29temp_79 + flow_29temp_88
 - flow_3029 - flow_3129 - flow_3229 - flow_3329 - flow_3429 - flow_3829
 - flow_4729 - flow_temp_18629 - flow_temp_19029 - flow_temp_19529
 - flow_temp_20229 - flow_temp_20929 - flow_temp_21829 - flow_temp_25029
 - flow_temp_5429 - flow_temp_5529 = 98901
_C260: - flow_3842 - flow_3942 - flow_4042 - flow_4142 + flow_4238 + flow_4239
 + flow_4240 + flow_4241 + flow_42temp_232 + flow_42temp_233 + flow_42temp_234
 + flow_42temp_235 - flow_temp_10242 - flow_temp_10342 - flow_temp_10442
 - flow_temp_10542 = 32967
_C261: - flow_143 - flow_1543 + flow_431 + flow_4315 + flow_43temp_236
 + flow_43temp_237 - flow_temp_10643 - flow_temp_10743 = 32967
_C262: - flow_1740 - flow_240 - flow_3840 - flow_3940 + flow_4017 + flow_402
 + flow_4038 + flow_4039 + flow_4041 + flow_4042 + flow_4045 + flow_40temp_103
 + flow_40temp_111 + flow_40temp_223 + flow_40temp_224 + flow_40temp_225
 + flow_40temp_226 + flow_40temp_97 - flow_4140 - flow_4240 - flow_4540
 - flow_temp_22740 - flow_temp_23340 - flow_temp_24140 - flow_temp_9340
 - flow_temp_9440 - flow_temp_9540 - flow_temp_9640 = 0
_C263: - flow_2041 - flow_3041 - flow_3841 - flow_3941 - flow_4041 + flow_4120
 + flow_4130 + flow_4138 + flow_4139 + flow_4140 + flow_4142 + flow_4147
 + flow_41temp_102 + flow_41temp_116 + flow_41temp_227 + flow_41temp_228
 + flow_41temp_229 + flow_41temp_230 + flow_41temp_231 - flow_4241 - flow_4741
 - flow_temp_10041 - flow_temp_10141 - flow_temp_23241 - flow_temp_24641
 - flow_temp_9741 - flow_temp_9841 - flow_temp_9941 = 65934
_C264: flow_12 + flow_13 + flow_14 + flow_143 + flow_15 + flow_19
 + flow_1temp_0 + flow_1temp_107 + flow_1temp_13 + flow_1temp_2 + flow_1temp_5
 + flow_1temp_9 - flow_21 - flow_31 - flow_41 - flow_431 - flow_51 - flow_91
 - flow_temp_1301 - flow_temp_1321 - flow_temp_1351 - flow_temp_1391
 - flow_temp_1431 - flow_temp_2371 = 0
_C265: - flow_15temp_28 + flow_temp_2816 = 0
_C266: - flow_14temp_29 + flow_temp_2916 = 0
_C267: - flow_109 - flow_119 - flow_129 - flow_139 - flow_19 - flow_269
 + flow_91 + flow_910 + flow_911 + flow_912 + flow_913 + flow_926
 + flow_9temp_14 + flow_9temp_143 + flow_9temp_16 + flow_9temp_20
 + flow_9temp_24 + flow_9temp_49 - flow_temp_139 - flow_temp_1449
 - flow_temp_1469 - flow_temp_1509 - flow_temp_1549 - flow_temp_1799 = 0
_C268: - flow_4temp_25 + flow_temp_2515 = 0
_C269: - flow_14temp_26 + flow_temp_2615 = 0
_C27: - flow_14 - flow_154 - flow_24 - flow_284 - flow_34 + flow_41 + flow_415
 + flow_42 + flow_428 + flow_43 + flow_45 + flow_4temp_133 + flow_4temp_134
 + flow_4temp_135 + flow_4temp_25 + flow_4temp_53 + flow_4temp_6 - flow_54
 - flow_temp_1364 - flow_temp_1554 - flow_temp_1834 - flow_temp_34
 - flow_temp_44 - flow_temp_54 = 0
_C270: - flow_10temp_27 + flow_temp_2715 = 0
_C271: - flow_9temp_20 + flow_temp_2012 = 0
_C272: - flow_12temp_21 + flow_temp_2113 = 0
_C273: - flow_11temp_22 + flow_temp_2213 = 0
_C274: - flow_10temp_23 + flow_temp_2313 = 0
_C275: - flow_34temp_209 + flow_temp_20929 = 0
_C276: - flow_34temp_208 + flow_temp_20830 = 0
_C277: - flow_29temp_88 + flow_temp_8838 = 0
_C278: - flow_7temp_89 + flow_temp_8938 = 0
_C279: - flow_35temp_86 + flow_temp_8637 = 0
_C28: - flow_15 - flow_25 - flow_35 - flow_45 + flow_51 + flow_52 + flow_53
 + flow_54 + flow_5temp_136 + flow_5temp_137 + flow_5temp_138 + flow_5temp_139
 - flow_temp_65 - flow_temp_75 - flow_temp_85 - flow_temp_95 = 0
_C280: - flow_35temp_87 + flow_temp_8738 = 0
_C281: - flow_10temp_84 + flow_temp_8436 = 0
_C282: - flow_36temp_85 + flow_temp_8537 = 0
_C283: - flow_14temp_82 + flow_temp_8236 = 0
_C284: - flow_35temp_83 + flow_temp_8336 = 0
_C285: - flow_28temp_80 + flow_temp_8034 = 0
_C286: - flow_18temp_81 + flow_temp_8135 = 0
_C287: - flow_17temp_160 + flow_temp_1603 = 0
_C288: - flow_18temp_161 + flow_temp_16117 = 0
_C289: - flow_18temp_162 + flow_temp_16210 = 0
_C29: - flow_12temp_149 + flow_temp_14910 = 0
_C290: - flow_19temp_163 + flow_temp_16318 = 0
_C291: - flow_19temp_164 + flow_temp_16417 = 0
_C292: - flow_21temp_165 + flow_temp_16520 = 0
_C293: - flow_21temp_166 + flow_temp_1666 = 0
_C294: - flow_21temp_167 + flow_temp_1672 = 0
_C295: - flow_22temp_168 + flow_temp_16821 = 0
_C296: - flow_22temp_169 + flow_temp_16920 = 0
_C297: - flow_11temp_147 + flow_temp_1476 = 0
_C298: - flow_39temp_221 + flow_temp_22138 = 0
_C299: - flow_10temp_19 + flow_temp_1912 = 0
_C3: - flow_23temp_173 + flow_temp_17320 = 0
_C30: - flow_4temp_135 + flow_temp_1351 = 0
_C300: - flow_11temp_18 + flow_temp_1812 = 0
_C301: - flow_39temp_220 + flow_temp_22012 = 0
_C302: - flow_7temp_11 + flow_temp_118 = 0
_C303: - flow_6temp_10 + flow_temp_107 = 0
_C304: - flow_1temp_13 + flow_temp_139 = 0
_C305: - flow_6temp_12 + flow_temp_128 = 0
_C306: - flow_10temp_15 + flow_temp_1511 = 0
_C307: - flow_9temp_14 + flow_temp_1410 = 0
_C308: - flow_6temp_17 + flow_temp_1711 = 0
_C309: - flow_9temp_16 + flow_temp_1611 = 0
_C31: - flow_32temp_198 + flow_temp_19812 = 0
_C32: - flow_3temp_132 + flow_temp_1321 = 0
_C33: - flow_11temp_146 + flow_temp_1469 = 0
_C34: - flow_9temp_24 + flow_temp_2413 = 0
_C35: - flow_10temp_144 + flow_temp_1449 = 0
_C36: - flow_11temp_145 + flow_temp_14510 = 0
_C37: - flow_8temp_142 + flow_temp_1426 = 0
_C38: - flow_9temp_143 + flow_temp_1431 = 0
_C39: - flow_7temp_140 + flow_temp_1406 = 0
_C4: - flow_23temp_172 + flow_temp_17221 = 0
_C40: - flow_8temp_141 + flow_temp_1417 = 0
_C41: - flow_28temp_182 + flow_temp_18223 = 0
_C42: - flow_38temp_219 + flow_temp_2197 = 0
_C43: - flow_12temp_148 + flow_temp_14811 = 0
_C44: - flow_28temp_57 + flow_temp_5730 = 0
_C45: - flow_28temp_73 + flow_temp_7333 = 0
_C46: - flow_29temp_72 + flow_temp_7233 = 0
_C47: - flow_30temp_71 + flow_temp_7133 = 0
_C48: - flow_31temp_70 + flow_temp_7033 = 0
_C49: - flow_31temp_77 + flow_temp_7734 = 0
_C5: - flow_23temp_171 + flow_temp_17122 = 0
_C50: - flow_32temp_76 + flow_temp_7634 = 0
_C51: - flow_33temp_75 + flow_temp_7534 = 0
_C52: - flow_3temp_74 + flow_temp_7433 = 0
_C53: - flow_29temp_79 + flow_temp_7934 = 0
_C54: - flow_30temp_78 + flow_temp_7834 = 0
_C55: - flow_42temp_233 + flow_temp_23340 = 0
_C56: - flow_41temp_227 + flow_temp_22740 = 0
_C57: - flow_42temp_234 + flow_temp_23439 = 0
_C58: - flow_42temp_235 + flow_temp_23538 = 0
_C59: - flow_16temp_159 + flow_temp_15914 = 0
_C6: - flow_22temp_170 + flow_temp_17012 = 0
_C60: - flow_16temp_158 + flow_temp_15815 = 0
_C61: - flow_47temp_250 + flow_temp_25029 = 0
_C62: - flow_48temp_251 + flow_temp_25126 = 0
_C63: - flow_49temp_256 + flow_temp_25626 = 0
_C64: - flow_49temp_257 + flow_temp_25725 = 0
_C65: - flow_48temp_254 + flow_temp_25415 = 0
_C66: - flow_49temp_255 + flow_temp_25548 = 0
_C67: - flow_13temp_151 + flow_temp_15112 = 0
_C68: - flow_12temp_150 + flow_temp_1509 = 0
_C69: - flow_13temp_153 + flow_temp_15310 = 0
_C7: - flow_24temp_177 + flow_temp_17720 = 0
_C70: - flow_13temp_152 + flow_temp_15211 = 0
_C71: - flow_15temp_155 + flow_temp_1554 = 0
_C72: - flow_13temp_154 + flow_temp_1549 = 0
_C73: - flow_15temp_157 + flow_temp_15710 = 0
_C74: - flow_15temp_156 + flow_temp_15614 = 0
_C75: - flow_44temp_238 + flow_temp_23839 = 0
_C76: - flow_47temp_246 + flow_temp_24641 = 0
_C77: - flow_44temp_239 + flow_temp_23930 = 0
_C78: - flow_45temp_241 + flow_temp_24140 = 0
_C79: - flow_44temp_240 + flow_temp_24028 = 0
_C8: - flow_24temp_176 + flow_temp_17621 = 0
_C80: - flow_29temp_60 + flow_temp_6031 = 0
_C81: - flow_28temp_61 + flow_temp_6131 = 0
_C82: - flow_25temp_62 + flow_temp_6231 = 0
_C83: - flow_31temp_63 + flow_temp_6332 = 0
_C84: - flow_30temp_64 + flow_temp_6432 = 0
_C85: - flow_29temp_65 + flow_temp_6532 = 0
_C86: - flow_28temp_66 + flow_temp_6632 = 0
_C87: - flow_14temp_67 + flow_temp_6732 = 0
_C88: - flow_12temp_68 + flow_temp_6832 = 0
_C89: - flow_32temp_69 + flow_temp_6933 = 0
_C9: - flow_24temp_175 + flow_temp_17522 = 0
_C90: - flow_34temp_205 + flow_temp_20533 = 0
_C91: - flow_33temp_201 + flow_temp_20130 = 0
_C92: - flow_13 - flow_173 - flow_23 + flow_31 + flow_317 + flow_32
 + 0 flow_333 + flow_34 + flow_35 + flow_3temp_131 + flow_3temp_132
 + flow_3temp_3 + flow_3temp_30 + flow_3temp_7 + flow_3temp_74 - flow_43
 - flow_53 - flow_temp_13 - flow_temp_1333 - flow_temp_1373 - flow_temp_1603
 - flow_temp_2043 - flow_temp_23 = 0
_C93: - flow_307 - flow_387 - flow_67 + flow_730 + flow_738 + flow_76
 + flow_78 + flow_7temp_11 + flow_7temp_140 + flow_7temp_58 + flow_7temp_89
 - flow_87 - flow_temp_107 - flow_temp_1417 - flow_temp_1887 - flow_temp_2197
 = 0
_C94: - flow_33temp_200 + flow_temp_20031 = 0
_C95: - flow_33temp_203 + flow_temp_20328 = 0
_C96: - flow_46temp_245 + flow_temp_24518 = 0
_C97: - flow_46temp_244 + flow_temp_24435 = 0
_C98: - flow_47temp_247 + flow_temp_24739 = 0
_C99: - flow_33temp_202 + flow_temp_20229 = 0
End
